p cnf 10 42
3 -7 -2 0
-9 6 1 0
3 -2 5 0
9 1 2 0
-10 -9 2 0
3 -6 -2 0
-10 1 -6 0
-8 -6 -2 0
9 -7 3 0
-10 4 -2 0
-9 8 -2 0
-10 1 2 0
9 -4 6 0
2 -8 10 0
3 4 -9 0
1 -9 -3 0
6 8 1 0
-7 -3 8 0
-4 8 3 0
8 9 2 0
5 -7 6 0
-4 -6 -10 0
8 -6 1 0
6 4 -2 0
7 9 3 0
1 -10 8 0
4 2 -1 0
5 -8 -4 0
2 -7 -4 0
7 -5 6 0
4 -6 -5 0
-9 -6 10 0
-8 -3 -9 0
8 -2 -9 0
7 3 -4 0
5 -8 4 0
5 -8 9 0
-8 -7 -10 0
9 8 -2 0
-2 -8 -6 0
10 -3 -5 0
8 4 -2 0
